
n_res = 4;
rcap = [30, 30, 566, 507];
rtype = [1, 1, 2, 2];
n_tasks = 50;
modes =  [{1, 2, 3, 4, 5, 6}, {7, 8, 9, 10, 11, 12}, {13, 14, 15, 16, 17, 18}, {19, 20, 21, 22, 23, 24}, {25, 26, 27, 28, 29, 30}, {31, 32, 33, 34, 35, 36}, {37, 38, 39, 40, 41, 42}, {43, 44, 45, 46, 47, 48}, {49, 50, 51, 52, 53, 54}, {55, 56, 57, 58, 59, 60}, {61, 62, 63, 64, 65, 66}, {67, 68, 69, 70, 71, 72}, {73, 74, 75, 76, 77, 78}, {79, 80, 81, 82, 83, 84}, {85, 86, 87, 88, 89, 90}, {91, 92, 93, 94, 95, 96}, {97, 98, 99, 100, 101, 102}, {103, 104, 105, 106, 107, 108}, {109, 110, 111, 112, 113, 114}, {115, 116, 117, 118, 119, 120}, {121, 122, 123, 124, 125, 126}, {127, 128, 129, 130, 131, 132}, {133, 134, 135, 136, 137, 138}, {139, 140, 141, 142, 143, 144}, {145, 146, 147, 148, 149, 150}, {151, 152, 153, 154, 155, 156}, {157, 158, 159, 160, 161, 162}, {163, 164, 165, 166, 167, 168}, {169, 170, 171, 172, 173, 174}, {175, 176, 177, 178, 179, 180}, {181, 182, 183, 184, 185, 186}, {187, 188, 189, 190, 191, 192}, {193, 194, 195, 196, 197, 198}, {199, 200, 201, 202, 203, 204}, {205, 206, 207, 208, 209, 210}, {211, 212, 213, 214, 215, 216}, {217, 218, 219, 220, 221, 222}, {223, 224, 225, 226, 227, 228}, {229, 230, 231, 232, 233, 234}, {235, 236, 237, 238, 239, 240}, {241, 242, 243, 244, 245, 246}, {247, 248, 249, 250, 251, 252}, {253, 254, 255, 256, 257, 258}, {259, 260, 261, 262, 263, 264}, {265, 266, 267, 268, 269, 270}, {271, 272, 273, 274, 275, 276}, {277, 278, 279, 280, 281, 282}, {283, 284, 285, 286, 287, 288}, {289, 290, 291, 292, 293, 294}, {295, 296, 297, 298, 299, 300}];
succ =  [{49, 33, 25, 23, 22, 15, 4}, {50, 49, 48, 46, 44, 40, 39, 28, 26, 25, 20, 16}, {49, 45, 32, 29, 27, 22, 20, 15}, {48, 47, 46, 44, 42, 39, 37, 29, 28, 16}, {48, 40, 39, 33, 25, 21, 16}, {49, 45, 43, 42, 41, 40, 39, 32, 30, 22}, {41, 40, 39, 22, 19}, {48, 46, 44, 43, 42, 41, 39, 32, 26}, {47, 39, 37, 30, 28, 16}, {48, 45, 44, 43, 40, 39, 33, 25}, {49, 47, 45, 42, 41, 40, 39, 36, 35, 30}, {46, 43, 42, 40, 36, 30, 27}, {46, 42, 40, 39, 30, 25}, {40, 39, 37, 33, 32, 31, 30}, {48, 43, 41, 40, 39, 38, 37, 31}, {45, 43, 41, 38, 32, 31}, {50, 47, 41, 40, 27}, {46, 42, 40, 36, 35, 30}, {46, 42, 38, 34, 33}, {43, 42, 41, 36, 35}, {42, 41, 37, 36, 35}, {47, 44, 37, 36}, {44, 43, 41, 35}, {43, 37, 36, 35}, {37, 35, 31}, {37, 36, 30}, {39, 37, 35}, {35, 31}, {40, 30}, {38}, {36}, {35}, {36}, {35}, {}, {}, {}, {}, {}, {}, {}, {}, {}, {}, {}, {}, {}, {}, {}, {}];
n_opt = 300;
dur = [2, 6, 7, 8, 13, 19, 5, 11, 12, 17, 18, 19, 3, 11, 14, 17, 19, 20, 1, 2, 5, 11, 14, 19, 5, 8, 11, 12, 17, 20, 4, 6, 7, 8, 10, 14, 2, 3, 14, 15, 18, 19, 3, 4, 5, 6, 11, 14, 2, 7, 8, 13, 14, 19, 2, 3, 8, 9, 11, 13, 1, 2, 8, 13, 16, 19, 6, 10, 14, 16, 17, 18, 1, 3, 4, 5, 9, 13, 9, 15, 16, 18, 19, 20, 4, 6, 7, 11, 12, 14, 2, 3, 4, 10, 13, 15, 2, 7, 8, 14, 18, 19, 1, 12, 14, 15, 16, 20, 1, 5, 6, 15, 17, 19, 2, 4, 7, 10, 14, 17, 4, 5, 7, 10, 11, 12, 1, 3, 5, 6, 16, 20, 2, 4, 5, 9, 10, 19, 6, 7, 15, 16, 18, 19, 6, 7, 8, 9, 10, 15, 1, 4, 9, 10, 16, 20, 1, 3, 4, 6, 10, 20, 2, 3, 9, 11, 13, 18, 1, 2, 6, 10, 14, 19, 1, 4, 5, 6, 7, 14, 5, 9, 10, 12, 15, 18, 1, 7, 11, 15, 16, 18, 5, 6, 10, 13, 14, 17, 3, 13, 17, 18, 19, 20, 1, 4, 6, 8, 9, 18, 5, 7, 8, 14, 15, 16, 2, 4, 5, 7, 13, 14, 3, 4, 11, 17, 18, 19, 1, 5, 8, 16, 17, 18, 3, 9, 14, 17, 18, 19, 1, 7, 10, 13, 17, 19, 3, 8, 13, 14, 19, 20, 2, 6, 9, 10, 11, 13, 1, 2, 3, 4, 10, 11, 4, 8, 9, 14, 15, 20, 2, 8, 10, 17, 18, 19, 5, 7, 8, 18, 19, 20, 8, 9, 12, 13, 17, 18, 3, 9, 10, 12, 15, 19, 1, 2, 4, 7, 12, 17];
rreq = [|4, 3, 3, 3, 3, 3, 4, 4, 4, 4, 4, 4, 3, 3, 3, 3, 2, 2, 2, 2, 2, 2, 2, 2, 3, 3, 3, 3, 2, 2, 5, 5, 5, 5, 5, 5, 4, 3, 3, 2, 1, 1, 2, 2, 2, 2, 2, 2, 4, 4, 4, 4, 4, 4, 3, 2, 2, 2, 1, 1, 4, 4, 4, 3, 3, 3, 1, 1, 1, 1, 1, 1, 4, 4, 4, 3, 3, 3, 4, 3, 3, 3, 1, 1, 3, 3, 2, 2, 2, 1, 4, 3, 2, 2, 1, 1, 3, 3, 3, 3, 3, 3, 2, 1, 1, 1, 1, 1, 5, 4, 4, 3, 3, 2, 4, 4, 4, 4, 4, 4, 4, 4, 4, 4, 3, 3, 2, 2, 2, 2, 2, 2, 4, 3, 2, 2, 1, 1, 5, 5, 5, 5, 5, 5, 5, 4, 4, 4, 4, 4, 4, 4, 3, 3, 3, 2, 4, 4, 4, 4, 4, 4, 2, 1, 1, 1, 1, 1, 2, 1, 1, 1, 1, 1, 1, 1, 1, 1, 1, 1, 5, 4, 3, 3, 3, 2, 2, 2, 2, 2, 2, 2, 1, 1, 1, 1, 1, 1, 5, 4, 4, 4, 4, 4, 5, 4, 4, 4, 4, 4, 4, 4, 3, 3, 2, 2, 3, 3, 3, 3, 2, 2, 4, 3, 3, 2, 2, 2, 4, 3, 3, 3, 2, 1, 1, 1, 1, 1, 1, 1, 3, 3, 3, 3, 3, 3, 3, 2, 2, 2, 2, 2, 3, 2, 2, 2, 1, 1, 4, 3, 3, 3, 3, 3, 5, 3, 3, 3, 1, 1, 3, 3, 2, 2, 1, 1, 4, 4, 4, 3, 3, 3, 3, 3, 3, 3, 3, 3, 2, 1, 1, 1, 1, 1, 2, 2, 2, 2, 1, 1
 |4, 4, 4, 4, 4, 4, 3, 3, 3, 2, 2, 2, 2, 2, 2, 2, 2, 2, 3, 3, 3, 3, 3, 3, 1, 1, 1, 1, 1, 1, 3, 3, 3, 2, 2, 2, 2, 2, 2, 2, 1, 1, 2, 2, 2, 2, 1, 1, 2, 1, 1, 1, 1, 1, 4, 4, 4, 3, 3, 2, 2, 2, 2, 1, 1, 1, 4, 3, 3, 2, 2, 2, 3, 3, 2, 2, 2, 1, 3, 3, 3, 2, 1, 1, 5, 4, 4, 4, 3, 3, 4, 4, 3, 3, 3, 2, 4, 4, 4, 4, 4, 4, 2, 2, 2, 2, 2, 2, 5, 4, 3, 3, 1, 1, 3, 3, 3, 2, 2, 1, 4, 3, 3, 2, 2, 1, 4, 4, 4, 4, 4, 4, 4, 4, 4, 4, 3, 3, 4, 3, 3, 2, 2, 2, 2, 1, 1, 1, 1, 1, 4, 4, 3, 3, 2, 2, 4, 4, 4, 3, 3, 3, 4, 4, 4, 3, 3, 2, 3, 3, 3, 3, 3, 3, 4, 4, 4, 3, 2, 2, 4, 4, 4, 4, 3, 3, 3, 2, 2, 2, 2, 2, 2, 2, 2, 1, 1, 1, 5, 4, 4, 4, 3, 3, 2, 2, 2, 2, 2, 2, 3, 3, 3, 3, 3, 3, 2, 1, 1, 1, 1, 1, 2, 2, 2, 1, 1, 1, 2, 2, 2, 2, 2, 2, 2, 2, 2, 2, 2, 2, 3, 3, 3, 3, 2, 2, 5, 5, 5, 5, 5, 5, 1, 1, 1, 1, 1, 1, 2, 2, 2, 2, 2, 2, 4, 4, 4, 4, 4, 4, 4, 4, 4, 3, 3, 3, 4, 4, 4, 3, 3, 2, 4, 3, 3, 3, 3, 3, 4, 4, 4, 4, 4, 4, 4, 4, 4, 4, 4, 4
 |10, 9, 9, 9, 8, 8, 5, 4, 3, 3, 3, 2, 11, 9, 9, 8, 5, 3, 15, 15, 13, 11, 7, 7, 13, 12, 12, 12, 12, 12, 7, 7, 7, 7, 6, 6, 16, 15, 15, 14, 14, 14, 11, 11, 11, 11, 11, 11, 18, 15, 12, 11, 10, 8, 20, 17, 13, 9, 8, 4, 17, 14, 10, 6, 3, 1, 15, 15, 15, 15, 15, 15, 12, 11, 8, 6, 6, 3, 6, 6, 6, 5, 5, 5, 17, 17, 17, 17, 17, 17, 18, 18, 16, 16, 15, 14, 15, 15, 15, 15, 15, 15, 10, 9, 9, 8, 7, 7, 15, 14, 13, 13, 11, 11, 18, 18, 18, 18, 18, 18, 17, 15, 15, 12, 10, 9, 18, 15, 10, 8, 5, 1, 13, 13, 13, 13, 12, 12, 15, 15, 13, 12, 11, 11, 18, 17, 17, 17, 17, 17, 12, 11, 10, 10, 8, 8, 11, 10, 8, 8, 6, 5, 5, 4, 3, 3, 3, 2, 20, 18, 18, 17, 15, 15, 18, 17, 17, 16, 16, 15, 9, 8, 7, 7, 7, 6, 12, 11, 10, 10, 7, 6, 17, 14, 10, 7, 6, 4, 17, 15, 15, 14, 13, 13, 19, 17, 17, 17, 15, 15, 11, 11, 9, 8, 7, 7, 14, 13, 13, 12, 10, 10, 16, 15, 15, 14, 13, 13, 10, 8, 6, 5, 4, 4, 18, 16, 10, 7, 5, 2, 17, 15, 14, 14, 12, 12, 14, 12, 12, 11, 11, 10, 13, 13, 11, 11, 9, 8, 15, 12, 11, 10, 8, 6, 18, 18, 18, 18, 18, 18, 20, 16, 15, 14, 11, 8, 15, 13, 13, 11, 11, 10, 7, 6, 6, 6, 6, 6, 11, 9, 8, 6, 6, 4, 5, 3, 3, 3, 2, 1
 |15, 14, 13, 12, 11, 10, 10, 9, 9, 9, 8, 8, 9, 8, 7, 8, 7, 6, 9, 8, 7, 6, 5, 4, 17, 13, 12, 7, 4, 1, 15, 14, 13, 14, 13, 12, 15, 14, 13, 13, 13, 12, 17, 16, 15, 14, 14, 13, 15, 14, 14, 13, 12, 12, 10, 10, 10, 9, 9, 9, 10, 10, 8, 7, 7, 6, 17, 16, 14, 13, 9, 8, 9, 9, 8, 7, 6, 6, 16, 16, 15, 16, 16, 15, 16, 13, 10, 8, 6, 2, 16, 16, 15, 14, 13, 13, 20, 19, 18, 17, 16, 15, 13, 12, 11, 9, 8, 7, 11, 11, 11, 11, 11, 11, 10, 9, 8, 6, 5, 5, 16, 15, 13, 9, 8, 7, 11, 11, 9, 9, 8, 7, 10, 10, 10, 9, 9, 8, 6, 5, 5, 5, 3, 2, 17, 17, 14, 9, 8, 3, 17, 15, 15, 13, 12, 12, 5, 5, 5, 5, 4, 4, 3, 2, 2, 2, 1, 2, 20, 17, 12, 9, 8, 5, 12, 10, 9, 7, 6, 3, 15, 12, 10, 9, 6, 6, 12, 11, 8, 6, 5, 4, 18, 16, 13, 11, 10, 7, 17, 17, 16, 15, 13, 11, 12, 11, 10, 9, 10, 9, 8, 7, 7, 6, 6, 5, 14, 11, 8, 6, 4, 3, 5, 5, 4, 2, 2, 1, 7, 7, 5, 5, 4, 3, 8, 8, 8, 7, 7, 7, 17, 15, 14, 13, 11, 10, 9, 8, 6, 5, 4, 4, 9, 8, 8, 7, 8, 8, 20, 19, 19, 19, 18, 18, 11, 9, 8, 7, 5, 4, 15, 14, 14, 14, 14, 14, 2, 2, 1, 2, 1, 1, 14, 13, 12, 11, 10, 9, 17, 14, 12, 12, 9, 8, 16, 13, 12, 10, 9, 9|];